db/data/2397829608178068650497079403017217640.z3.out
sat
-------------------
288.585381696
